; Property from "Productive Use of Failure in Inductive Proof",
; Andrew Ireland and Alan Bundy, JAR 1996
(declare-datatypes (a)
  ((list (nil) (cons (head a) (tail (list a))))))
(declare-datatypes () ((Nat (Z) (S (proj1-S Nat)))))
(define-fun-rec
  (par (a)
    (length
       ((x (list a))) Nat
       (match x
         (case nil Z)
         (case (cons y xs) (S (length xs)))))))
(define-fun-rec
  (par (a)
    (++
       ((x (list a)) (y (list a))) (list a)
       (match x
         (case nil y)
         (case (cons z xs) (cons z (++ xs y)))))))
(assert-not
  (par (a)
    (forall ((x (list a)) (y (list a)))
      (= (length (++ x y)) (length (++ y x))))))
(check-sat)
